c FILE /home/rafael/Documents/HappySet/MIHS/inputs/happygen/output/graph_d_regular_k4_p0.4_v50_20241127_082619.txt
c SOURCE This is a d-regular graph formed for the happy graph colouring problem.
c DESCRIPTION It was generated using the problem generator of Rhyd Lewis
c
c GRAPH STATS
c Seed                             = -761182857
c Number of Nodes                  = 50
c Number of colours k              = 4
c Number of pre-assignments        = 20
c Degree of all vertices           = 6
c Density                          = 0.122449
c 
c The degrees of nodes 1 to 50, respectively, are as follows 
c [6, 6, 6, 6, 6, 6, 6, 6, 6, 6, 6, 6, 6, 6, 6, 6, 6, 6, 6, 6, 6, 6, 6, 6, 6, 6, 
c  6, 6, 6, 6, 6, 6, 6, 6, 6, 6, 6, 6, 6, 6, 6, 6, 6, 6, 6, 6, 6, 6, 6, 6] 
c  
p edge 50 150 4
e 1 5
e 1 10
e 1 20
e 1 27
e 1 30
e 1 43
e 2 21
e 2 26
e 2 29
e 2 35
e 2 38
e 2 48
e 3 8
e 3 20
e 3 27
e 3 36
e 3 47
e 3 48
e 4 25
e 4 26
e 4 28
e 4 31
e 4 35
e 4 50
e 5 14
e 5 35
e 5 39
e 5 40
e 5 46
e 6 9
e 6 13
e 6 17
e 6 21
e 6 41
e 6 42
e 7 25
e 7 27
e 7 32
e 7 36
e 7 38
e 7 45
e 8 13
e 8 14
e 8 15
e 8 17
e 8 32
e 9 18
e 9 23
e 9 26
e 9 31
e 9 37
e 10 11
e 10 28
e 10 37
e 10 48
e 10 50
e 11 13
e 11 16
e 11 20
e 11 25
e 11 41
e 12 23
e 12 28
e 12 33
e 12 39
e 12 40
e 12 45
e 13 20
e 13 45
e 13 49
e 14 16
e 14 29
e 14 35
e 14 44
e 15 19
e 15 26
e 15 34
e 15 43
e 15 44
e 16 22
e 16 44
e 16 49
e 16 50
e 17 33
e 17 34
e 17 42
e 17 47
e 18 21
e 18 24
e 18 35
e 18 40
e 18 46
e 19 21
e 19 23
e 19 30
e 19 39
e 19 40
e 20 34
e 20 40
e 21 26
e 21 45
e 22 31
e 22 32
e 22 44
e 22 46
e 22 47
e 23 24
e 23 37
e 23 47
e 24 28
e 24 30
e 24 36
e 24 50
e 25 30
e 25 33
e 25 41
e 26 28
e 27 34
e 27 38
e 27 39
e 28 37
e 29 32
e 29 36
e 29 38
e 29 50
e 30 34
e 30 46
e 31 43
e 31 46
e 31 48
e 32 42
e 32 48
e 33 42
e 33 44
e 33 50
e 34 44
e 35 43
e 36 40
e 36 41
e 37 38
e 37 43
e 38 49
e 39 41
e 39 49
e 41 43
e 42 45
e 42 47
e 45 48
e 46 49
e 47 49
n 5 1
n 6 4
n 10 4
n 11 4
n 14 1
n 17 4
n 18 1
n 22 1
n 23 3
n 25 4
n 26 2
n 30 4
n 35 1
n 38 3
n 41 4
n 42 4
n 45 4
n 48 4
n 49 3
n 50 4
